\ Model prob_87
\ LP format - for model browsing. Use MPS format to capture full model detail.
Minimize
  151000 open[0] + 192000 open[1] + 114000 open[2] + 171000 open[3]
   + 160000 open[4] + 120000 open[5] + 182000 open[6] + 186000 open[7]
   + 3 x[0,0] + 3 x[0,1] + 5 x[0,2] + 4 x[0,3] + 3 x[0,4] + 5 x[0,5]
   + 2 x[0,6] + 4 x[0,7] + 2 x[1,0] + 4 x[1,1] + 5 x[1,2] + x[1,3]
   + 4 x[1,4] + 2 x[1,5] + 5 x[1,6] + 4 x[1,7] + x[2,0] + x[2,1] + 3 x[2,2]
   + 3 x[2,3] + 2 x[2,4] + 4 x[2,5] + 4 x[2,6] + 3 x[2,7] + 4 x[3,0]
   + 4 x[3,1] + x[3,2] + 3 x[3,3] + 5 x[3,4] + 3 x[3,5] + 5 x[3,6] + x[3,7]
   + 2 x[4,0] + 4 x[4,1] + x[4,2] + 4 x[4,3] + 2 x[4,4] + 2 x[4,5] + x[4,6]
   + 2 x[4,7] + 5 x[5,0] + 2 x[5,1] + 4 x[5,2] + 4 x[5,3] + 4 x[5,4]
   + 4 x[5,5] + 5 x[5,6] + 3 x[5,7] + x[6,0] + 4 x[6,1] + 2 x[6,2]
   + 4 x[6,3] + 2 x[6,4] + 2 x[6,5] + 4 x[6,6] + 5 x[6,7] + 2 x[7,0]
   + 2 x[7,1] + 4 x[7,2] + 2 x[7,3] + 2 x[7,4] + 4 x[7,5] + 4 x[7,6]
   + x[7,7]
Subject To
 R0: x[0,0] + x[1,0] + x[2,0] + x[3,0] + x[4,0] + x[5,0] + x[6,0] + x[7,0]
   >= 695
 R1: x[0,1] + x[1,1] + x[2,1] + x[3,1] + x[4,1] + x[5,1] + x[6,1] + x[7,1]
   >= 737
 R2: x[0,2] + x[1,2] + x[2,2] + x[3,2] + x[4,2] + x[5,2] + x[6,2] + x[7,2]
   >= 452
 R3: x[0,3] + x[1,3] + x[2,3] + x[3,3] + x[4,3] + x[5,3] + x[6,3] + x[7,3]
   >= 616
 R4: x[0,4] + x[1,4] + x[2,4] + x[3,4] + x[4,4] + x[5,4] + x[6,4] + x[7,4]
   >= 587
 R5: x[0,5] + x[1,5] + x[2,5] + x[3,5] + x[4,5] + x[5,5] + x[6,5] + x[7,5]
   >= 779
 R6: x[0,6] + x[1,6] + x[2,6] + x[3,6] + x[4,6] + x[5,6] + x[6,6] + x[7,6]
   >= 892
 R7: x[0,7] + x[1,7] + x[2,7] + x[3,7] + x[4,7] + x[5,7] + x[6,7] + x[7,7]
   >= 440
 R8: - 1980 open[0] + x[0,0] + x[0,1] + x[0,2] + x[0,3] + x[0,4] + x[0,5]
   + x[0,6] + x[0,7] <= 0
 R9: - 814 open[1] + x[1,0] + x[1,1] + x[1,2] + x[1,3] + x[1,4] + x[1,5]
   + x[1,6] + x[1,7] <= 0
 R10: - 864 open[2] + x[2,0] + x[2,1] + x[2,2] + x[2,3] + x[2,4] + x[2,5]
   + x[2,6] + x[2,7] <= 0
 R11: - 1320 open[3] + x[3,0] + x[3,1] + x[3,2] + x[3,3] + x[3,4] + x[3,5]
   + x[3,6] + x[3,7] <= 0
 R12: - 1952 open[4] + x[4,0] + x[4,1] + x[4,2] + x[4,3] + x[4,4] + x[4,5]
   + x[4,6] + x[4,7] <= 0
 R13: - 1447 open[5] + x[5,0] + x[5,1] + x[5,2] + x[5,3] + x[5,4] + x[5,5]
   + x[5,6] + x[5,7] <= 0
 R14: - 1886 open[6] + x[6,0] + x[6,1] + x[6,2] + x[6,3] + x[6,4] + x[6,5]
   + x[6,6] + x[6,7] <= 0
 R15: - 1962 open[7] + x[7,0] + x[7,1] + x[7,2] + x[7,3] + x[7,4] + x[7,5]
   + x[7,6] + x[7,7] <= 0
Bounds
Binaries
 open[0] open[1] open[2] open[3] open[4] open[5] open[6] open[7]
End
